%chk=moh-x0-1.7.chk
# opt=(calcfc, modredundant) freq=(savenormalmodes, IntModes) 6-31+g geom=(connectivity) bmk

Title Card Required

0 1
 C                  0.82195710   -0.00302902    0.00000030
 H                  1.04825655    1.05619676   -0.00011441
 H                  1.04858250   -0.52869650    0.92249761
 H                  1.04859591   -0.52889833   -0.92237953
 O                 -0.87431430    0.10950258   -0.00000097
 H                 -1.08266318   -0.85644846    0.00000227

 1 2 1.0 3 1.0 4 1.0 5 1.0
 2
 3
 4
 5 6 1.0
 6

B 1 5 F

