%mem=60GB
%NProcShared=16
%chk=G-stretched07
#P bmk/6-31+g ! ASE formatted method and basis
opt(modredun,calcfc)

Gaussian input prepared by ASE

0 1
C                 0.0000000000        0.0000000000        0.0000000000
H                -0.1011139565        1.0891248753       -0.0000819418
H                -0.4286770477       -0.4508438612       -0.9022077532
H                -0.4286621025       -0.4507037015        0.9022842468
C                 1.6756191879       -0.5492355881        0.0000250354
O                 1.7488185595       -1.7893206228        0.0000849933
N                 2.9415238817        0.1794593954       -0.0000076933
H                 2.9551633512        1.1918026876       -0.0000637012
C                 4.3563483116       -0.5376300342        0.0000334922
H                 4.3733850084       -1.1884238563       -0.8843075176
H                 4.3733906876       -1.1883127901        0.8844584824
C                 5.8093275247        0.3262817437       -0.0000243442
O                 5.7634870554        1.5602165243       -0.0001103178
N                 7.0677356792       -0.4025947829        0.0000289314
H                 6.9550726634       -1.4104274696        0.0001009962
C                 8.6856964878        0.0000000000        0.0000000000
H                 9.1223755649       -0.4250368966       -0.9104372514
H                 8.7353046559        1.0909513552       -0.0000380286
H                 9.1223863707       -0.4249735716        0.9104617486

1 16 F
