%mem=60GB
%NProcShared=16
%chk=G-stretched04
#P bmk/6-31+g ! ASE formatted method and basis
opt(modredun,calcfc)

Gaussian input prepared by ASE

0 1
C                 0.0000000000        0.0000000000        0.0000000000
H                 0.0248125777        1.0955658184       -0.0001040614
H                -0.5278375254       -0.3687805004       -0.8927866944
H                -0.5278168531       -0.3686086236        0.8928683056
C                 1.4821519401       -0.6643587009        0.0000443339
O                 1.5294359182       -1.9109239256        0.0001382169
N                 2.7115784767        0.0479734955       -0.0000167071
H                 2.7531030616        1.0594241163       -0.0000948098
C                 4.0446827231       -0.6895511458        0.0000159955
H                 4.0680788338       -1.3474454195       -0.8813690624
H                 4.0680654489       -1.3473799834        0.8814499376
C                 5.3867941623        0.1951092371       -0.0000193243
O                 5.3207095506        1.4336811426       -0.0001001608
N                 6.6139122046       -0.5145139638        0.0000356405
H                 6.5307443588       -1.5233439836        0.0001038462
C                 8.0856965496       -0.0000000000        0.0000000000
H                 8.6074515322       -0.3549989931       -0.9018302906
H                 8.0400940095        1.0931506290       -0.0000228872
H                 8.6074766081       -0.3549614998        0.9018297094

1 16 F
