%mem=60GB
%NProcShared=16
%chk=G-stretched01
#P bmk/6-31+g ! ASE formatted method and basis
opt(modredun,calcfc)

Gaussian input prepared by ASE

0 1
C                 0.0000000000        0.0000000000        0.0000000000
H                 0.2890537181       -1.0589237985       -0.0001641119
H                -0.6278949504        0.2121110829        0.8857110708
H                -0.6281542346        0.2123296617       -0.8854869300
C                 1.2340890473        0.9310654942       -0.0000602082
O                 1.1035327380        2.1727433357       -0.0000606094
N                 2.4934290131        0.3455228997       -0.0000913389
H                 2.6300533796       -0.6582540198       -0.0000519191
C                 3.7350011061        1.1432530902       -0.0000675241
H                 3.7624682372        1.7984544487        0.8844255603
H                 3.7625334878        1.7984583150       -0.8845584395
C                 4.9724587306        0.1992596603       -0.0000417220
O                 4.8265937323       -1.0389141625       -0.0000841702
N                 6.2238660591        0.7923752228       -0.0000018770
H                 6.2916324191        1.7992146686        0.0000473312
C                 7.4856968565        0.0000000000        0.0000000000
H                 8.3672879438        0.6780786334       -0.0005202913
H                 7.5283083299       -0.6421893405        0.8879711309
H                 7.5277533596       -0.6428811579       -0.8874888708

1 16 F
