%mem=60GB
%NProcShared=16
%chk=G-stretched06
#P bmk/6-31+g ! ASE formatted method and basis
opt(modredun,calcfc)

Gaussian input prepared by ASE

0 1
C                 0.0000000000        0.0000000000        0.0000000000
H                -0.0705145133        1.0922803187        0.0000409501
H                -0.4611496553       -0.4284912258       -0.8989493261
H                -0.4612132935       -0.4285711565        0.8988776739
C                 1.6103739923       -0.5758705684        0.0000441387
O                 1.6847342983       -1.8181515483        0.0001301912
N                 2.8617382676        0.1522353843       -0.0000079765
H                 2.8826999144        1.1644696841       -0.0000789617
C                 4.2504906397       -0.5706932688        0.0000470054
H                 4.2680834071       -1.2248168562       -0.8827329822
H                 4.2680882184       -1.2246754161        0.8829320178
C                 5.6674274203        0.2964589813       -0.0000239927
O                 5.6183407645        1.5321577299       -0.0001240274
N                 6.9139869399       -0.4298185288        0.0000348887
H                 6.8053643687       -1.4375776755        0.0001188119
C                 8.4856972006        0.0000000000        0.0000000000
H                 8.9486574082       -0.4068739456       -0.9075866727
H                 8.5141231308        1.0924259210       -0.0000949799
H                 8.9486550197       -0.4067141458        0.9076593273

1 16 F
