%mem=60GB
%NProcShared=16
%chk=G-stretched09
#P bmk/6-31+g ! ASE formatted method and basis
opt(modredun,calcfc)

Gaussian input prepared by ASE

0 1
C                 0.0000000000        0.0000000000        0.0000000000
H                -0.1514838651        1.0811171257       -0.0000630167
H                -0.3400228154       -0.4970038017       -0.9111980374
H                -0.3400224700       -0.4968972338        0.9112549626
C                 1.8679270380       -0.5109395169        0.0000302056
O                 1.9164624632       -1.7458282155        0.0001052109
N                 3.1606136668        0.2084006513       -0.0000146521
H                 3.1692165747        1.2207475557       -0.0000796512
C                 4.6109951803       -0.5055264593        0.0000285075
H                 4.6274827187       -1.1499162482       -0.8875724907
H                 4.6274819515       -1.1498087833        0.8877075093
C                 6.1198669558        0.3577092619       -0.0000253264
O                 6.0734730377        1.5886524744       -0.0001093315
N                 7.3957180229       -0.3712517324        0.0000258140
H                 7.2827301776       -1.3797349600        0.0000958016
C                 9.0856964850        0.0000000000        0.0000000000
H                 9.4831681450       -0.4477704980       -0.9148819563
H                 9.1556024838        1.0887171815       -0.0000469923
H                 9.4831733347       -0.4476915987        0.9149180437

1 16 F
